Route #1: 32 3 6 53 58 45 44 2
Route #2: 57 20 63 42 39 25 23
Route #3: 52 49 43 62
Route #4: 1 26 41 54 31 7
Route #5: 17 38 40 34 27 21 8 46 30
Route #6: 33 29 11 28 56 13 16
Route #7: 47 61 50 10 12
Route #8: 18 22 55 51 59 14 4 5 24
Route #9: 19 15 35 48 36 60 9 37
Cost 861
Time 0.106087
